(set-logic QF_LRA)
(declare-fun X0 () Real )
(declare-fun Y0 () Real )
(declare-fun X1 () Real )
(declare-fun Y1 () Real )
(declare-fun X2 () Real )
(declare-fun Y2 () Real )
(declare-fun X3 () Real )
(declare-fun Y3 () Real )
(declare-fun X4 () Real )
(declare-fun Y4 () Real )
(declare-fun X5 () Real )
(declare-fun Y5 () Real )
(declare-fun X6 () Real )
(declare-fun Y6 () Real )
(declare-fun X7 () Real )
(declare-fun Y7 () Real )
(declare-fun X8 () Real )
(declare-fun Y8 () Real )
(declare-fun X9 () Real )
(declare-fun Y9 () Real )
(declare-fun X10 () Real )
(declare-fun Y10 () Real )
(declare-fun X11 () Real )
(declare-fun Y11 () Real )
(declare-fun X12 () Real )
(declare-fun Y12 () Real )
(declare-fun X13 () Real )
(declare-fun Y13 () Real )
(declare-fun X14 () Real )
(declare-fun Y14 () Real )
(declare-fun Z () Real )
(declare-fun k () Real )
(assert (let
(( $goal (>= Z k) ))
(let
((
$phi ( and 
( or ( <= ( + X0 31 ) X1 )  ( <= ( + X1 66 ) X0 )  ( <= ( + Y0 56 ) Y1 )  ( <= ( + Y1 39 ) Y0 )  )
( or ( <= ( + X0 31 ) X2 )  ( <= ( + X2 79 ) X0 )  ( <= ( + Y0 56 ) Y2 )  ( <= ( + Y2 67 ) Y0 )  )
( or ( <= ( + X0 31 ) X3 )  ( <= ( + X3 83 ) X0 )  ( <= ( + Y0 56 ) Y3 )  ( <= ( + Y3 35 ) Y0 )  )
( or ( <= ( + X0 31 ) X4 )  ( <= ( + X4 94 ) X0 )  ( <= ( + Y0 56 ) Y4 )  ( <= ( + Y4 65 ) Y0 )  )
( or ( <= ( + X0 31 ) X5 )  ( <= ( + X5 49 ) X0 )  ( <= ( + Y0 56 ) Y5 )  ( <= ( + Y5 78 ) Y0 )  )
( or ( <= ( + X0 31 ) X6 )  ( <= ( + X6 46 ) X0 )  ( <= ( + Y0 56 ) Y6 )  ( <= ( + Y6 22 ) Y0 )  )
( or ( <= ( + X0 31 ) X7 )  ( <= ( + X7 80 ) X0 )  ( <= ( + Y0 56 ) Y7 )  ( <= ( + Y7 14 ) Y0 )  )
( or ( <= ( + X0 31 ) X8 )  ( <= ( + X8 15 ) X0 )  ( <= ( + Y0 56 ) Y8 )  ( <= ( + Y8 75 ) Y0 )  )
( or ( <= ( + X0 31 ) X9 )  ( <= ( + X9 49 ) X0 )  ( <= ( + Y0 56 ) Y9 )  ( <= ( + Y9 68 ) Y0 )  )
( or ( <= ( + X0 31 ) X10 )  ( <= ( + X10 33 ) X0 )  ( <= ( + Y0 56 ) Y10 )  ( <= ( + Y10 73 ) Y0 )  )
( or ( <= ( + X0 31 ) X11 )  ( <= ( + X11 17 ) X0 )  ( <= ( + Y0 56 ) Y11 )  ( <= ( + Y11 51 ) Y0 )  )
( or ( <= ( + X0 31 ) X12 )  ( <= ( + X12 50 ) X0 )  ( <= ( + Y0 56 ) Y12 )  ( <= ( + Y12 89 ) Y0 )  )
( or ( <= ( + X0 31 ) X13 )  ( <= ( + X13 4 ) X0 )  ( <= ( + Y0 56 ) Y13 )  ( <= ( + Y13 53 ) Y0 )  )
( or ( <= ( + X0 31 ) X14 )  ( <= ( + X14 50 ) X0 )  ( <= ( + Y0 56 ) Y14 )  ( <= ( + Y14 44 ) Y0 )  )
( or ( <= ( + X1 66 ) X2 )  ( <= ( + X2 79 ) X1 )  ( <= ( + Y1 39 ) Y2 )  ( <= ( + Y2 67 ) Y1 )  )
( or ( <= ( + X1 66 ) X3 )  ( <= ( + X3 83 ) X1 )  ( <= ( + Y1 39 ) Y3 )  ( <= ( + Y3 35 ) Y1 )  )
( or ( <= ( + X1 66 ) X4 )  ( <= ( + X4 94 ) X1 )  ( <= ( + Y1 39 ) Y4 )  ( <= ( + Y4 65 ) Y1 )  )
( or ( <= ( + X1 66 ) X5 )  ( <= ( + X5 49 ) X1 )  ( <= ( + Y1 39 ) Y5 )  ( <= ( + Y5 78 ) Y1 )  )
( or ( <= ( + X1 66 ) X6 )  ( <= ( + X6 46 ) X1 )  ( <= ( + Y1 39 ) Y6 )  ( <= ( + Y6 22 ) Y1 )  )
( or ( <= ( + X1 66 ) X7 )  ( <= ( + X7 80 ) X1 )  ( <= ( + Y1 39 ) Y7 )  ( <= ( + Y7 14 ) Y1 )  )
( or ( <= ( + X1 66 ) X8 )  ( <= ( + X8 15 ) X1 )  ( <= ( + Y1 39 ) Y8 )  ( <= ( + Y8 75 ) Y1 )  )
( or ( <= ( + X1 66 ) X9 )  ( <= ( + X9 49 ) X1 )  ( <= ( + Y1 39 ) Y9 )  ( <= ( + Y9 68 ) Y1 )  )
( or ( <= ( + X1 66 ) X10 )  ( <= ( + X10 33 ) X1 )  ( <= ( + Y1 39 ) Y10 )  ( <= ( + Y10 73 ) Y1 )  )
( or ( <= ( + X1 66 ) X11 )  ( <= ( + X11 17 ) X1 )  ( <= ( + Y1 39 ) Y11 )  ( <= ( + Y11 51 ) Y1 )  )
( or ( <= ( + X1 66 ) X12 )  ( <= ( + X12 50 ) X1 )  ( <= ( + Y1 39 ) Y12 )  ( <= ( + Y12 89 ) Y1 )  )
( or ( <= ( + X1 66 ) X13 )  ( <= ( + X13 4 ) X1 )  ( <= ( + Y1 39 ) Y13 )  ( <= ( + Y13 53 ) Y1 )  )
( or ( <= ( + X1 66 ) X14 )  ( <= ( + X14 50 ) X1 )  ( <= ( + Y1 39 ) Y14 )  ( <= ( + Y14 44 ) Y1 )  )
( or ( <= ( + X2 79 ) X3 )  ( <= ( + X3 83 ) X2 )  ( <= ( + Y2 67 ) Y3 )  ( <= ( + Y3 35 ) Y2 )  )
( or ( <= ( + X2 79 ) X4 )  ( <= ( + X4 94 ) X2 )  ( <= ( + Y2 67 ) Y4 )  ( <= ( + Y4 65 ) Y2 )  )
( or ( <= ( + X2 79 ) X5 )  ( <= ( + X5 49 ) X2 )  ( <= ( + Y2 67 ) Y5 )  ( <= ( + Y5 78 ) Y2 )  )
( or ( <= ( + X2 79 ) X6 )  ( <= ( + X6 46 ) X2 )  ( <= ( + Y2 67 ) Y6 )  ( <= ( + Y6 22 ) Y2 )  )
( or ( <= ( + X2 79 ) X7 )  ( <= ( + X7 80 ) X2 )  ( <= ( + Y2 67 ) Y7 )  ( <= ( + Y7 14 ) Y2 )  )
( or ( <= ( + X2 79 ) X8 )  ( <= ( + X8 15 ) X2 )  ( <= ( + Y2 67 ) Y8 )  ( <= ( + Y8 75 ) Y2 )  )
( or ( <= ( + X2 79 ) X9 )  ( <= ( + X9 49 ) X2 )  ( <= ( + Y2 67 ) Y9 )  ( <= ( + Y9 68 ) Y2 )  )
( or ( <= ( + X2 79 ) X10 )  ( <= ( + X10 33 ) X2 )  ( <= ( + Y2 67 ) Y10 )  ( <= ( + Y10 73 ) Y2 )  )
( or ( <= ( + X2 79 ) X11 )  ( <= ( + X11 17 ) X2 )  ( <= ( + Y2 67 ) Y11 )  ( <= ( + Y11 51 ) Y2 )  )
( or ( <= ( + X2 79 ) X12 )  ( <= ( + X12 50 ) X2 )  ( <= ( + Y2 67 ) Y12 )  ( <= ( + Y12 89 ) Y2 )  )
( or ( <= ( + X2 79 ) X13 )  ( <= ( + X13 4 ) X2 )  ( <= ( + Y2 67 ) Y13 )  ( <= ( + Y13 53 ) Y2 )  )
( or ( <= ( + X2 79 ) X14 )  ( <= ( + X14 50 ) X2 )  ( <= ( + Y2 67 ) Y14 )  ( <= ( + Y14 44 ) Y2 )  )
( or ( <= ( + X3 83 ) X4 )  ( <= ( + X4 94 ) X3 )  ( <= ( + Y3 35 ) Y4 )  ( <= ( + Y4 65 ) Y3 )  )
( or ( <= ( + X3 83 ) X5 )  ( <= ( + X5 49 ) X3 )  ( <= ( + Y3 35 ) Y5 )  ( <= ( + Y5 78 ) Y3 )  )
( or ( <= ( + X3 83 ) X6 )  ( <= ( + X6 46 ) X3 )  ( <= ( + Y3 35 ) Y6 )  ( <= ( + Y6 22 ) Y3 )  )
( or ( <= ( + X3 83 ) X7 )  ( <= ( + X7 80 ) X3 )  ( <= ( + Y3 35 ) Y7 )  ( <= ( + Y7 14 ) Y3 )  )
( or ( <= ( + X3 83 ) X8 )  ( <= ( + X8 15 ) X3 )  ( <= ( + Y3 35 ) Y8 )  ( <= ( + Y8 75 ) Y3 )  )
( or ( <= ( + X3 83 ) X9 )  ( <= ( + X9 49 ) X3 )  ( <= ( + Y3 35 ) Y9 )  ( <= ( + Y9 68 ) Y3 )  )
( or ( <= ( + X3 83 ) X10 )  ( <= ( + X10 33 ) X3 )  ( <= ( + Y3 35 ) Y10 )  ( <= ( + Y10 73 ) Y3 )  )
( or ( <= ( + X3 83 ) X11 )  ( <= ( + X11 17 ) X3 )  ( <= ( + Y3 35 ) Y11 )  ( <= ( + Y11 51 ) Y3 )  )
( or ( <= ( + X3 83 ) X12 )  ( <= ( + X12 50 ) X3 )  ( <= ( + Y3 35 ) Y12 )  ( <= ( + Y12 89 ) Y3 )  )
( or ( <= ( + X3 83 ) X13 )  ( <= ( + X13 4 ) X3 )  ( <= ( + Y3 35 ) Y13 )  ( <= ( + Y13 53 ) Y3 )  )
( or ( <= ( + X3 83 ) X14 )  ( <= ( + X14 50 ) X3 )  ( <= ( + Y3 35 ) Y14 )  ( <= ( + Y14 44 ) Y3 )  )
( or ( <= ( + X4 94 ) X5 )  ( <= ( + X5 49 ) X4 )  ( <= ( + Y4 65 ) Y5 )  ( <= ( + Y5 78 ) Y4 )  )
( or ( <= ( + X4 94 ) X6 )  ( <= ( + X6 46 ) X4 )  ( <= ( + Y4 65 ) Y6 )  ( <= ( + Y6 22 ) Y4 )  )
( or ( <= ( + X4 94 ) X7 )  ( <= ( + X7 80 ) X4 )  ( <= ( + Y4 65 ) Y7 )  ( <= ( + Y7 14 ) Y4 )  )
( or ( <= ( + X4 94 ) X8 )  ( <= ( + X8 15 ) X4 )  ( <= ( + Y4 65 ) Y8 )  ( <= ( + Y8 75 ) Y4 )  )
( or ( <= ( + X4 94 ) X9 )  ( <= ( + X9 49 ) X4 )  ( <= ( + Y4 65 ) Y9 )  ( <= ( + Y9 68 ) Y4 )  )
( or ( <= ( + X4 94 ) X10 )  ( <= ( + X10 33 ) X4 )  ( <= ( + Y4 65 ) Y10 )  ( <= ( + Y10 73 ) Y4 )  )
( or ( <= ( + X4 94 ) X11 )  ( <= ( + X11 17 ) X4 )  ( <= ( + Y4 65 ) Y11 )  ( <= ( + Y11 51 ) Y4 )  )
( or ( <= ( + X4 94 ) X12 )  ( <= ( + X12 50 ) X4 )  ( <= ( + Y4 65 ) Y12 )  ( <= ( + Y12 89 ) Y4 )  )
( or ( <= ( + X4 94 ) X13 )  ( <= ( + X13 4 ) X4 )  ( <= ( + Y4 65 ) Y13 )  ( <= ( + Y13 53 ) Y4 )  )
( or ( <= ( + X4 94 ) X14 )  ( <= ( + X14 50 ) X4 )  ( <= ( + Y4 65 ) Y14 )  ( <= ( + Y14 44 ) Y4 )  )
( or ( <= ( + X5 49 ) X6 )  ( <= ( + X6 46 ) X5 )  ( <= ( + Y5 78 ) Y6 )  ( <= ( + Y6 22 ) Y5 )  )
( or ( <= ( + X5 49 ) X7 )  ( <= ( + X7 80 ) X5 )  ( <= ( + Y5 78 ) Y7 )  ( <= ( + Y7 14 ) Y5 )  )
( or ( <= ( + X5 49 ) X8 )  ( <= ( + X8 15 ) X5 )  ( <= ( + Y5 78 ) Y8 )  ( <= ( + Y8 75 ) Y5 )  )
( or ( <= ( + X5 49 ) X9 )  ( <= ( + X9 49 ) X5 )  ( <= ( + Y5 78 ) Y9 )  ( <= ( + Y9 68 ) Y5 )  )
( or ( <= ( + X5 49 ) X10 )  ( <= ( + X10 33 ) X5 )  ( <= ( + Y5 78 ) Y10 )  ( <= ( + Y10 73 ) Y5 )  )
( or ( <= ( + X5 49 ) X11 )  ( <= ( + X11 17 ) X5 )  ( <= ( + Y5 78 ) Y11 )  ( <= ( + Y11 51 ) Y5 )  )
( or ( <= ( + X5 49 ) X12 )  ( <= ( + X12 50 ) X5 )  ( <= ( + Y5 78 ) Y12 )  ( <= ( + Y12 89 ) Y5 )  )
( or ( <= ( + X5 49 ) X13 )  ( <= ( + X13 4 ) X5 )  ( <= ( + Y5 78 ) Y13 )  ( <= ( + Y13 53 ) Y5 )  )
( or ( <= ( + X5 49 ) X14 )  ( <= ( + X14 50 ) X5 )  ( <= ( + Y5 78 ) Y14 )  ( <= ( + Y14 44 ) Y5 )  )
( or ( <= ( + X6 46 ) X7 )  ( <= ( + X7 80 ) X6 )  ( <= ( + Y6 22 ) Y7 )  ( <= ( + Y7 14 ) Y6 )  )
( or ( <= ( + X6 46 ) X8 )  ( <= ( + X8 15 ) X6 )  ( <= ( + Y6 22 ) Y8 )  ( <= ( + Y8 75 ) Y6 )  )
( or ( <= ( + X6 46 ) X9 )  ( <= ( + X9 49 ) X6 )  ( <= ( + Y6 22 ) Y9 )  ( <= ( + Y9 68 ) Y6 )  )
( or ( <= ( + X6 46 ) X10 )  ( <= ( + X10 33 ) X6 )  ( <= ( + Y6 22 ) Y10 )  ( <= ( + Y10 73 ) Y6 )  )
( or ( <= ( + X6 46 ) X11 )  ( <= ( + X11 17 ) X6 )  ( <= ( + Y6 22 ) Y11 )  ( <= ( + Y11 51 ) Y6 )  )
( or ( <= ( + X6 46 ) X12 )  ( <= ( + X12 50 ) X6 )  ( <= ( + Y6 22 ) Y12 )  ( <= ( + Y12 89 ) Y6 )  )
( or ( <= ( + X6 46 ) X13 )  ( <= ( + X13 4 ) X6 )  ( <= ( + Y6 22 ) Y13 )  ( <= ( + Y13 53 ) Y6 )  )
( or ( <= ( + X6 46 ) X14 )  ( <= ( + X14 50 ) X6 )  ( <= ( + Y6 22 ) Y14 )  ( <= ( + Y14 44 ) Y6 )  )
( or ( <= ( + X7 80 ) X8 )  ( <= ( + X8 15 ) X7 )  ( <= ( + Y7 14 ) Y8 )  ( <= ( + Y8 75 ) Y7 )  )
( or ( <= ( + X7 80 ) X9 )  ( <= ( + X9 49 ) X7 )  ( <= ( + Y7 14 ) Y9 )  ( <= ( + Y9 68 ) Y7 )  )
( or ( <= ( + X7 80 ) X10 )  ( <= ( + X10 33 ) X7 )  ( <= ( + Y7 14 ) Y10 )  ( <= ( + Y10 73 ) Y7 )  )
( or ( <= ( + X7 80 ) X11 )  ( <= ( + X11 17 ) X7 )  ( <= ( + Y7 14 ) Y11 )  ( <= ( + Y11 51 ) Y7 )  )
( or ( <= ( + X7 80 ) X12 )  ( <= ( + X12 50 ) X7 )  ( <= ( + Y7 14 ) Y12 )  ( <= ( + Y12 89 ) Y7 )  )
( or ( <= ( + X7 80 ) X13 )  ( <= ( + X13 4 ) X7 )  ( <= ( + Y7 14 ) Y13 )  ( <= ( + Y13 53 ) Y7 )  )
( or ( <= ( + X7 80 ) X14 )  ( <= ( + X14 50 ) X7 )  ( <= ( + Y7 14 ) Y14 )  ( <= ( + Y14 44 ) Y7 )  )
( or ( <= ( + X8 15 ) X9 )  ( <= ( + X9 49 ) X8 )  ( <= ( + Y8 75 ) Y9 )  ( <= ( + Y9 68 ) Y8 )  )
( or ( <= ( + X8 15 ) X10 )  ( <= ( + X10 33 ) X8 )  ( <= ( + Y8 75 ) Y10 )  ( <= ( + Y10 73 ) Y8 )  )
( or ( <= ( + X8 15 ) X11 )  ( <= ( + X11 17 ) X8 )  ( <= ( + Y8 75 ) Y11 )  ( <= ( + Y11 51 ) Y8 )  )
( or ( <= ( + X8 15 ) X12 )  ( <= ( + X12 50 ) X8 )  ( <= ( + Y8 75 ) Y12 )  ( <= ( + Y12 89 ) Y8 )  )
( or ( <= ( + X8 15 ) X13 )  ( <= ( + X13 4 ) X8 )  ( <= ( + Y8 75 ) Y13 )  ( <= ( + Y13 53 ) Y8 )  )
( or ( <= ( + X8 15 ) X14 )  ( <= ( + X14 50 ) X8 )  ( <= ( + Y8 75 ) Y14 )  ( <= ( + Y14 44 ) Y8 )  )
( or ( <= ( + X9 49 ) X10 )  ( <= ( + X10 33 ) X9 )  ( <= ( + Y9 68 ) Y10 )  ( <= ( + Y10 73 ) Y9 )  )
( or ( <= ( + X9 49 ) X11 )  ( <= ( + X11 17 ) X9 )  ( <= ( + Y9 68 ) Y11 )  ( <= ( + Y11 51 ) Y9 )  )
( or ( <= ( + X9 49 ) X12 )  ( <= ( + X12 50 ) X9 )  ( <= ( + Y9 68 ) Y12 )  ( <= ( + Y12 89 ) Y9 )  )
( or ( <= ( + X9 49 ) X13 )  ( <= ( + X13 4 ) X9 )  ( <= ( + Y9 68 ) Y13 )  ( <= ( + Y13 53 ) Y9 )  )
( or ( <= ( + X9 49 ) X14 )  ( <= ( + X14 50 ) X9 )  ( <= ( + Y9 68 ) Y14 )  ( <= ( + Y14 44 ) Y9 )  )
( or ( <= ( + X10 33 ) X11 )  ( <= ( + X11 17 ) X10 )  ( <= ( + Y10 73 ) Y11 )  ( <= ( + Y11 51 ) Y10 )  )
( or ( <= ( + X10 33 ) X12 )  ( <= ( + X12 50 ) X10 )  ( <= ( + Y10 73 ) Y12 )  ( <= ( + Y12 89 ) Y10 )  )
( or ( <= ( + X10 33 ) X13 )  ( <= ( + X13 4 ) X10 )  ( <= ( + Y10 73 ) Y13 )  ( <= ( + Y13 53 ) Y10 )  )
( or ( <= ( + X10 33 ) X14 )  ( <= ( + X14 50 ) X10 )  ( <= ( + Y10 73 ) Y14 )  ( <= ( + Y14 44 ) Y10 )  )
( or ( <= ( + X11 17 ) X12 )  ( <= ( + X12 50 ) X11 )  ( <= ( + Y11 51 ) Y12 )  ( <= ( + Y12 89 ) Y11 )  )
( or ( <= ( + X11 17 ) X13 )  ( <= ( + X13 4 ) X11 )  ( <= ( + Y11 51 ) Y13 )  ( <= ( + Y13 53 ) Y11 )  )
( or ( <= ( + X11 17 ) X14 )  ( <= ( + X14 50 ) X11 )  ( <= ( + Y11 51 ) Y14 )  ( <= ( + Y14 44 ) Y11 )  )
( or ( <= ( + X12 50 ) X13 )  ( <= ( + X13 4 ) X12 )  ( <= ( + Y12 89 ) Y13 )  ( <= ( + Y13 53 ) Y12 )  )
( or ( <= ( + X12 50 ) X14 )  ( <= ( + X14 50 ) X12 )  ( <= ( + Y12 89 ) Y14 )  ( <= ( + Y14 44 ) Y12 )  )
( or ( <= ( + X13 4 ) X14 )  ( <= ( + X14 50 ) X13 )  ( <= ( + Y13 53 ) Y14 )  ( <= ( + Y14 44 ) Y13 )  )
( >= X0 0)
( <= ( + X0 31) Z)
( >= Y0 0)
( <= ( + Y0 56 ) 100)
( >= X1 0)
( <= ( + X1 66) Z)
( >= Y1 0)
( <= ( + Y1 39 ) 100)
( >= X2 0)
( <= ( + X2 79) Z)
( >= Y2 0)
( <= ( + Y2 67 ) 100)
( >= X3 0)
( <= ( + X3 83) Z)
( >= Y3 0)
( <= ( + Y3 35 ) 100)
( >= X4 0)
( <= ( + X4 94) Z)
( >= Y4 0)
( <= ( + Y4 65 ) 100)
( >= X5 0)
( <= ( + X5 49) Z)
( >= Y5 0)
( <= ( + Y5 78 ) 100)
( >= X6 0)
( <= ( + X6 46) Z)
( >= Y6 0)
( <= ( + Y6 22 ) 100)
( >= X7 0)
( <= ( + X7 80) Z)
( >= Y7 0)
( <= ( + Y7 14 ) 100)
( >= X8 0)
( <= ( + X8 15) Z)
( >= Y8 0)
( <= ( + Y8 75 ) 100)
( >= X9 0)
( <= ( + X9 49) Z)
( >= Y9 0)
( <= ( + Y9 68 ) 100)
( >= X10 0)
( <= ( + X10 33) Z)
( >= Y10 0)
( <= ( + Y10 73 ) 100)
( >= X11 0)
( <= ( + X11 17) Z)
( >= Y11 0)
( <= ( + Y11 51 ) 100)
( >= X12 0)
( <= ( + X12 50) Z)
( >= Y12 0)
( <= ( + Y12 89 ) 100)
( >= X13 0)
( <= ( + X13 4) Z)
( >= Y13 0)
( <= ( + Y13 53 ) 100)
( >= X14 0)
( <= ( + X14 50) Z)
( >= Y14 0)
( <= ( + Y14 44 ) 100)
) )
)(=> $phi $goal))))